%nprocshared=10
#n HF 6-31G* POP(MK) IOP(6/33=2) scf=direct

input/1-1_opt.log

2 1
C         -6.11338        3.04782       -0.03348
C         -4.60774        3.02209        0.02247
C         -3.87054        4.19955        0.00726
C         -2.49019        4.19107        0.06291
C         -1.80509        2.98300        0.11716
C         -0.32157        3.03675        0.17358
O          0.28877        3.98580        0.56565
N          0.33634        1.89594       -0.28759
C          1.69127        1.66345       -0.31814
C          2.65845        2.56227        0.13903
C          3.99389        2.22306        0.05973
C          4.43422        1.00342       -0.43698
C          5.90836        0.73649       -0.50539
N          6.54923        0.46321        0.87962
C          8.00739        0.15386        0.76610
C          8.25536       -1.22815        0.15354
N          7.24701       -2.24908        0.61491
C          7.83654       -3.63455        0.66505
C          6.62737       -1.84822        1.91272
C          5.84754       -0.54009        1.77251
C          3.45797        0.11062       -0.90749
C          3.84406       -1.20896       -1.52443
F          2.83188       -1.95298       -1.85709
F          4.58482       -1.94559       -0.64071
F          4.62705       -1.06603       -2.57638
C          2.12420        0.43589       -0.84859
C         -2.52683        1.79585        0.14419
C         -3.91436        1.80321        0.10042
C         -4.62671        0.55612        0.14167
C         -5.22735       -0.47244        0.17446
C         -5.93562       -1.69896        0.21410
C         -5.51087       -2.99826        0.30512
N         -6.53934       -3.86309        0.31166
C         -7.61381       -3.11943        0.22554
C         -8.99241       -3.46991        0.18905
C         -9.88354       -2.46625        0.09596
C         -9.40576       -1.11327        0.03883
N         -8.16980       -0.78026        0.07036
N         -7.30573       -1.79488        0.16324
H         -6.48059        4.06394       -0.09433
H         -6.53902        2.57829        0.84641
H         -6.47671        2.49630       -0.89347
H         -4.38711        5.14008       -0.04642
H         -1.93950        5.11202        0.05985
H         -0.23352        1.21218       -0.73191
H          2.36501        3.51407        0.52330
H          4.71153        2.96021        0.38222
H          6.44669        1.60278       -0.86415
H          6.16241       -0.09456       -1.13651
H          6.48278        1.34827        1.35810
H          8.43067        0.22392        1.75777
H          8.47686        0.90820        0.15120
H          9.23497       -1.56521        0.45904
H          8.23030       -1.21376       -0.92551
H          6.50157       -2.28949       -0.06556
H          8.57928       -3.66700        1.44737
H          8.28683       -3.84897       -0.29235
H          7.04276       -4.33718        0.86653
H          7.42289       -1.78236        2.64075
H          5.94904       -2.62932        2.22355
H          5.74057       -0.09486        2.75065
H          4.86550       -0.70388        1.36954
H          1.39602       -0.25760       -1.22262
H         -2.03836        0.84321        0.24119
H         -4.49594       -3.33320        0.36671
H         -9.26853       -4.50530        0.23647
H        -10.94052       -2.64784        0.06325
H        -10.09893       -0.29708       -0.03566

