%nprocshared=10
#n HF 6-31G* opt

tests/1-1.mol2

2 1
C          6.53130       -2.93600        0.81370
C          5.04020       -2.73730        0.69940
C          4.17170       -3.78760        0.87080
C          2.80630       -3.63890        0.77230
C          2.26820       -2.39370        0.49080
C          0.82300       -2.26560        0.39660
O          0.14070       -3.22940        0.81650
N          0.17870       -1.13370       -0.13310
C         -1.19700       -0.89760       -0.27220
C         -2.20890       -1.73380        0.13690
C         -3.56160       -1.44530       -0.03360
C         -3.90680       -0.27130       -0.63760
C         -5.36160        0.06300       -0.86390
N         -6.20680       -0.96870       -0.29030
C         -7.60530       -0.73610       -0.65010
C         -8.00550        0.71520       -0.49080
N         -7.52500        1.09930        0.82290
C         -8.27920        2.19060        1.38580
C         -7.36070       -0.01950        1.69110
C         -6.18090       -0.84970        1.18310
C         -2.93590        0.60630       -1.06890
C         -3.32010        1.88340       -1.72710
F         -2.16010        2.58040       -2.06630
F         -3.99910        2.73010       -0.84580
F         -4.01260        1.66790       -2.87970
C         -1.62030        0.29250       -0.88650
C          3.15370       -1.35430        0.32270
C          4.53420       -1.49310        0.41990
C          5.38320       -0.34930        0.22860
C          6.07840        0.62190        0.05970
C          6.88530        1.79230       -0.14820
C          6.37370        3.01300       -0.54770
N          7.40260        3.87110       -0.64100
C          8.55960        3.23950       -0.31390
C          9.87220        3.68350       -0.25690
C         10.83270        2.76900        0.12000
C         10.41490        1.48690        0.41060
N          9.13510        1.08590        0.34640
N          8.20320        1.97670       -0.02020
H          6.73850       -3.96240        1.03390
H          6.91430       -2.31840        1.59910
H          6.99870       -2.66810       -0.11080
H          4.55640       -4.72190        1.08100
H          2.18590       -4.45240        0.90770
H          0.77050       -0.41250       -0.44750
H         -1.95300       -2.62260        0.59470
H         -4.28630       -2.10500        0.28980
H         -5.54970        0.13040       -1.91510
H         -5.58290        0.99810       -0.39320
H         -5.86870       -1.87000       -0.62750
H         -8.22730       -1.33590       -0.01900
H         -7.72620       -0.99790       -1.68050
H         -9.06890        0.81970       -0.54690
H         -7.59420        1.33090       -1.26320
H         -6.58300        1.47170        0.70320
H         -9.29090        1.88050        1.54460
H         -8.26240        3.02110        0.71130
H         -7.84430        2.48050        2.31950
H         -8.25020       -0.61420        1.68770
H         -7.17520        0.31290        2.69110
H         -6.23150       -1.82810        1.61330
H         -5.27360       -0.35920        1.46780
H         -0.90440        0.95950       -1.21460
H          2.77210       -0.41880        0.11260
H          5.38220        3.22590       -0.73920
H         10.11990        4.65850       -0.48720
H         11.82810        3.03410        0.18240
H         11.12720        0.79590        0.69370

